(synth-fun lemma ((x Int) (y Int) (zero Int)) Bool

           ((Start Bool))

           ((Start Bool (
                   (=> (nat y) (= (plus x (succ y)) (succ (plus x y))))
                   (= (plus x zero) x))))

)

(synth-fun rswitch () Int

           ((Start Int))

           ((Start Int (0)))

)